100
128
1
5
12
6
37
5
3
8
53
1
5
41
22
29
30
24
24
14
19
28
20
11
52
28
23
1
4
7
1
4
3
3
4
3
21
15
6
7
56
4
38
1
34
6
7
2
3
36
13
11
13
16
7
12
13
22
6
6
8
13
11
15
35
47
10
43
49
40
45
47
5
7
1
48
50
47
58
52
45
2
1
31
45
59
48
48
49
22
19
10
31
43
20
3
5
9
37
52
13
63